
Gurobi 11.0.3 (linux64) logging started Mon Dec 15 14:38:27 2025

Set parameter LogFile to value "./log/train/IS_800_5/IS_0.lp.log"
Set parameter TimeLimit to value 3600
Gurobi Optimizer version 11.0.3 build v11.0.3rc0 (linux64 - "Ubuntu 22.04.5 LTS")

CPU model: AMD Ryzen 9 9900X 12-Core Processor, instruction set [SSE2|AVX|AVX2|AVX512]
Thread count: 12 physical cores, 24 logical processors, using up to 24 threads

Optimize a model with 4119 rows, 800 columns and 8070 nonzeros
Model fingerprint: 0x737cf87e
Variable types: 0 continuous, 800 integer (800 binary)
Coefficient statistics:
  Matrix range     [1e+00, 1e+00]
  Objective range  [1e+00, 1e+00]
  Bounds range     [1e+00, 1e+00]
  RHS range        [1e+00, 1e+00]
Found heuristic solution: objective 182.0000000
Presolve removed 927 rows and 0 columns
Presolve time: 0.01s
Presolved: 3192 rows, 800 columns, 7079 nonzeros
Variable types: 0 continuous, 800 integer (800 binary)

Root relaxation: objective 3.635000e+02, 1314 iterations, 0.02 seconds (0.05 work units)

    Nodes    |    Current Node    |     Objective Bounds      |     Work
 Expl Unexpl |  Obj  Depth IntInf | Incumbent    BestBd   Gap | It/Node Time

     0     0  363.50000    0  683  182.00000  363.50000   100%     -    0s
H    0     0                     305.0000000  363.50000  19.2%     -    0s
H    0     0                     320.0000000  363.50000  13.6%     -    0s
H    0     0                     325.0000000  357.42536  10.0%     -    0s
H    0     0                     326.0000000  357.42536  9.64%     -    0s
     0     0  357.42197    0  780  326.00000  357.42197  9.64%     -    0s
     0     0  357.42197    0  780  326.00000  357.42197  9.64%     -    0s
     0     0  352.72774    0  778  326.00000  352.72774  8.20%     -    0s
     0     0  352.40819    0  778  326.00000  352.40819  8.10%     -    0s
     0     0  352.33360    0  782  326.00000  352.33360  8.08%     -    0s
     0     0  352.33197    0  778  326.00000  352.33197  8.08%     -    0s
     0     0  350.14123    0  781  326.00000  350.14123  7.41%     -    0s
     0     0  350.06489    0  782  326.00000  350.06489  7.38%     -    0s
     0     0  350.05804    0  783  326.00000  350.05804  7.38%     -    0s
     0     0  350.04592    0  782  326.00000  350.04592  7.38%     -    0s
     0     0  350.04507    0  782  326.00000  350.04507  7.38%     -    0s
     0     0  349.03564    0  780  326.00000  349.03564  7.07%     -    0s
     0     0  348.95735    0  783  326.00000  348.95735  7.04%     -    0s
     0     0  348.94380    0  783  326.00000  348.94380  7.04%     -    0s
     0     0  348.94243    0  782  326.00000  348.94243  7.04%     -    0s
     0     0  348.45630    0  778  326.00000  348.45630  6.89%     -    0s
     0     0  348.41484    0  781  326.00000  348.41484  6.88%     -    0s
     0     0  348.40732    0  779  326.00000  348.40732  6.87%     -    0s
     0     0  348.40452    0  781  326.00000  348.40452  6.87%     -    0s
     0     0  347.71746    0  777  326.00000  347.71746  6.66%     -    0s
H    0     0                     328.0000000  347.58784  5.97%     -    0s
     0     0  347.58784    0  777  328.00000  347.58784  5.97%     -    0s
     0     0  347.56267    0  778  328.00000  347.56267  5.96%     -    0s
     0     0  347.55626    0  780  328.00000  347.55626  5.96%     -    0s
     0     0  347.55515    0  780  328.00000  347.55515  5.96%     -    0s
     0     0  346.93337    0  780  328.00000  346.93337  5.77%     -    0s
H    0     0                     329.0000000  346.93337  5.45%     -    0s
     0     0  346.81847    0  783  329.00000  346.81847  5.42%     -    0s
     0     0  346.78477    0  785  329.00000  346.78477  5.41%     -    0s
     0     0  346.77445    0  785  329.00000  346.77445  5.40%     -    0s
     0     0  346.77246    0  785  329.00000  346.77246  5.40%     -    0s
     0     0  346.53417    0  782  329.00000  346.53417  5.33%     -    1s
     0     0  346.51350    0  782  329.00000  346.51350  5.32%     -    1s
     0     0  346.50302    0  783  329.00000  346.50302  5.32%     -    1s
     0     0  346.50001    0  783  329.00000  346.50001  5.32%     -    1s
     0     0  346.18643    0  779  329.00000  346.18643  5.22%     -    1s
     0     0  346.13791    0  780  329.00000  346.13791  5.21%     -    1s
     0     0  346.12747    0  780  329.00000  346.12747  5.21%     -    1s
     0     0  346.11610    0  779  329.00000  346.11610  5.20%     -    1s
     0     0  346.11534    0  778  329.00000  346.11534  5.20%     -    1s
     0     0  345.86751    0  780  329.00000  345.86751  5.13%     -    1s
     0     0  345.80174    0  782  329.00000  345.80174  5.11%     -    1s
     0     0  345.78569    0  783  329.00000  345.78569  5.10%     -    1s
     0     0  345.78142    0  782  329.00000  345.78142  5.10%     -    1s
     0     0  345.41855    0  781  329.00000  345.41855  4.99%     -    1s
     0     0  345.35705    0  782  329.00000  345.35705  4.97%     -    1s
     0     0  345.32826    0  783  329.00000  345.32826  4.96%     -    1s
     0     0  345.31862    0  783  329.00000  345.31862  4.96%     -    1s
     0     0  345.31655    0  784  329.00000  345.31655  4.96%     -    1s
     0     0  344.98334    0  780  329.00000  344.98334  4.86%     -    1s
     0     0  344.88275    0  781  329.00000  344.88275  4.83%     -    1s
     0     0  344.86490    0  781  329.00000  344.86490  4.82%     -    1s
     0     0  344.86398    0  781  329.00000  344.86398  4.82%     -    1s
     0     0  344.67574    0  778  329.00000  344.67574  4.76%     -    1s
     0     0  344.64298    0  782  329.00000  344.64298  4.75%     -    1s
     0     0  344.63430    0  780  329.00000  344.63430  4.75%     -    1s
     0     0  344.63001    0  783  329.00000  344.63001  4.75%     -    1s
     0     0  344.47344    0  783  329.00000  344.47344  4.70%     -    1s
     0     0  344.45377    0  781  329.00000  344.45377  4.70%     -    1s
     0     0  344.45196    0  781  329.00000  344.45196  4.70%     -    1s
     0     0  344.34283    0  785  329.00000  344.34283  4.66%     -    1s
     0     0  344.32548    0  784  329.00000  344.32548  4.66%     -    1s
     0     0  344.32236    0  784  329.00000  344.32236  4.66%     -    1s
     0     0  344.25718    0  780  329.00000  344.25718  4.64%     -    1s
     0     0  344.22902    0  783  329.00000  344.22902  4.63%     -    1s
     0     0  344.22480    0  784  329.00000  344.22480  4.63%     -    1s
     0     0  344.07384    0  782  329.00000  344.07384  4.58%     -    1s
     0     0  344.03244    0  783  329.00000  344.03244  4.57%     -    1s
     0     0  344.02524    0  784  329.00000  344.02524  4.57%     -    1s
     0     0  343.97566    0  784  329.00000  343.97566  4.55%     -    1s
     0     0  343.96667    0  784  329.00000  343.96667  4.55%     -    1s
     0     0  343.96376    0  784  329.00000  343.96376  4.55%     -    1s
     0     0  343.93260    0  785  329.00000  343.93260  4.54%     -    1s
     0     0  343.93260    0  785  329.00000  343.93260  4.54%     -    1s
     0     2  343.93260    0  785  329.00000  343.93260  4.54%     -    1s
H   29    34                     331.0000000  343.37096  3.74%   917    2s
H  219   121                     332.0000000  343.37096  3.42%   403    3s
   557   272  333.86735   19  718  332.00000  343.31680  3.41%   373    5s
  2014   895     cutoff   19       332.00000  338.79121  2.05%   321   10s
  3479  1280  336.91975   41  780  332.00000  337.85683  1.76%   298   15s
  3489  1287  335.65625   45  785  332.00000  337.85683  1.76%   297   20s
  3719  1465  337.85683   23  763  332.00000  337.85683  1.76%   329   25s
  4790  1990  336.99877   37  745  332.00000  337.85683  1.76%   364   30s
  7806  2845  336.02880   31  730  332.00000  337.85683  1.76%   345   35s
 11437  4475  333.92059   24  730  332.00000  337.85683  1.76%   323   40s
 13234  5087  335.58768   28  729  332.00000  337.85683  1.76%   317   48s
 13265  5105  335.22788   29  723  332.00000  337.85683  1.76%   317   50s
 16028  6317  334.88469   33  727  332.00000  337.51832  1.66%   317   55s
 19833  7667  334.58753   30  729  332.00000  336.88571  1.47%   320   60s
 23713  7945  333.64004   31  713  332.00000  336.25058  1.28%   323   65s
 27965  7268  333.72273   30  720  332.00000  335.47599  1.05%   331   70s
 32859  4337  333.09872   60  694  332.00000  334.50150  0.75%   326   75s

Cutting planes:
  Gomory: 5
  MIR: 1
  Zero half: 384
  RLT: 169
  BQP: 44

Explored 39813 nodes (11703250 simplex iterations) in 78.62 seconds (199.26 work units)
Thread count was 24 (of 24 available processors)

Solution count 9: 332 331 329 ... 182

Optimal solution found (tolerance 1.00e-04)
Best objective 3.320000000000e+02, best bound 3.320000000000e+02, gap 0.0000%

User-callback calls 91157, time in user-callback 0.06 sec
